NAME : SCA3-3.73577.tour
COMMENT : Cost = 0_73577
COMMENT : Found by LKH [Keld Helsgaun] Thu Sep 14 15:14:59 2017
TYPE : TOUR
DIMENSION : 54
TOUR_SECTION
1
20
18
12
10
43
36
32
22
17
52
7
2
19
26
11
28
51
24
15
6
31
46
44
23
48
54
4
21
16
33
40
27
3
38
35
13
42
9
25
53
47
5
37
8
29
50
14
45
30
39
49
41
34
-1
EOF
